; Options: -q --produce-models --incremental --print-success --lang smt2.6 --arrays-exp
(set-logic ALL)

(declare-fun start!2831 () Bool)

(assert start!2831)

(declare-fun lt!8057 () (_ FloatingPoint 11 53))

(declare-datatypes ((Unit!1631 0))(
  ( (Unit!1632) )
))
(declare-datatypes ((array!1170 0))(
  ( (array!1171 (arr!511 (Array (_ BitVec 32) (_ BitVec 32))) (size!511 (_ BitVec 32))) )
))
(declare-datatypes ((tuple4!400 0))(
  ( (tuple4!401 (_1!399 Unit!1631) (_2!399 array!1170) (_3!331 (_ BitVec 32)) (_4!200 (_ FloatingPoint 11 53))) )
))
(declare-fun e!8598 () tuple4!400)

(declare-fun b!15563 () Bool)

(declare-fun lt!8063 () array!1170)

(declare-fun jz!20 () (_ BitVec 32))

(declare-fun Unit!1633 () Unit!1631)

(assert (=> b!15563 (= e!8598 (tuple4!401 Unit!1633 lt!8063 jz!20 lt!8057))))

(declare-fun b!15564 () Bool)

(declare-fun e!8602 () Bool)

(declare-fun e!8599 () Bool)

(assert (=> b!15564 (= e!8602 e!8599)))

(declare-fun res!12106 () Bool)

(assert (=> b!15564 (=> (not res!12106) (not e!8599))))

(declare-fun i!142 () (_ BitVec 32))

(declare-fun lt!8058 () (_ FloatingPoint 11 53))

(declare-fun lt!8060 () tuple4!400)

(assert (=> b!15564 (= res!12106 (and (fp.leq (fp #b0 #b00000000000 #b0000000000000000000000000000000000000000000000000000) lt!8058) (fp.lt lt!8058 (fp #b0 #b10000000010 #b0000000000000000000000000000000000000000000000000000)) (bvsge (select (arr!511 (_2!399 lt!8060)) (bvsub jz!20 #b00000000000000000000000000000001)) #b00000000100000000000000000000000) (bvsle #b00000000000000000000000000000000 i!142) (bvsle i!142 (bvsub jz!20 #b00000000000000000000000000000001))))))

(assert (=> b!15564 (= lt!8058 (fp.sub roundNearestTiesToEven (_4!200 lt!8060) (fp.mul roundNearestTiesToEven (fp #b0 #b10000000010 #b0000000000000000000000000000000000000000000000000000) ((_ to_fp 11 53) roundNearestTiesToEven (ite (fp.isNaN (fp.mul roundNearestTiesToEven (_4!200 lt!8060) (fp #b0 #b01111111100 #b0000000000000000000000000000000000000000000000000000))) #b0000000000000000000000000000000000000000000000000000000000000000 (ite (fp.gt (fp.mul roundNearestTiesToEven (_4!200 lt!8060) (fp #b0 #b01111111100 #b0000000000000000000000000000000000000000000000000000)) ((_ to_fp 11 53) roundTowardZero #b0111111111111111111111111111111111111111111111111111111111111111)) #b0111111111111111111111111111111111111111111111111111111111111111 (ite (fp.lt (fp.mul roundNearestTiesToEven (_4!200 lt!8060) (fp #b0 #b01111111100 #b0000000000000000000000000000000000000000000000000000)) ((_ to_fp 11 53) roundTowardZero #b1000000000000000000000000000000000000000000000000000000000000000)) #b1000000000000000000000000000000000000000000000000000000000000000 ((_ fp.to_sbv 64) roundTowardZero (fp.mul roundNearestTiesToEven (_4!200 lt!8060) (fp #b0 #b01111111100 #b0000000000000000000000000000000000000000000000000000))))))))))))

(assert (=> b!15564 (= lt!8060 e!8598)))

(declare-fun c!1943 () Bool)

(assert (=> b!15564 (= c!1943 (bvsgt jz!20 #b00000000000000000000000000000000))))

(declare-datatypes ((array!1172 0))(
  ( (array!1173 (arr!512 (Array (_ BitVec 32) (_ FloatingPoint 11 53))) (size!512 (_ BitVec 32))) )
))
(declare-fun q!31 () array!1172)

(assert (=> b!15564 (= lt!8057 (select (arr!512 q!31) jz!20))))

(assert (=> b!15564 (= lt!8063 (array!1171 ((as const (Array (_ BitVec 32) (_ BitVec 32))) #b00000000000000000000000000000000) #b00000000000000000000000000010100))))

(declare-fun b!15565 () Bool)

(declare-fun e!8596 () Bool)

(declare-fun e!8600 () Bool)

(assert (=> b!15565 (= e!8596 e!8600)))

(declare-fun res!12102 () Bool)

(assert (=> b!15565 (=> (not res!12102) (not e!8600))))

(declare-fun lt!8061 () (_ BitVec 32))

(assert (=> b!15565 (= res!12102 (bvslt lt!8061 (bvsub jz!20 #b00000000000000000000000000000001)))))

(assert (=> b!15565 (= lt!8061 (bvadd i!142 #b00000000000000000000000000000001))))

(declare-fun b!15566 () Bool)

(declare-fun res!12103 () Bool)

(assert (=> b!15566 (=> (not res!12103) (not e!8599))))

(declare-fun iq!76 () array!1170)

(declare-fun iqInv!0 (array!1170) Bool)

(assert (=> b!15566 (= res!12103 (iqInv!0 iq!76))))

(declare-fun b!15562 () Bool)

(declare-fun res!12098 () Bool)

(declare-fun e!8601 () Bool)

(assert (=> b!15562 (=> res!12098 e!8601)))

(declare-datatypes ((tuple4!402 0))(
  ( (tuple4!403 (_1!400 Unit!1631) (_2!400 (_ BitVec 32)) (_3!332 array!1170) (_4!201 (_ BitVec 32))) )
))
(declare-fun lt!8059 () tuple4!402)

(assert (=> b!15562 (= res!12098 (not (iqInv!0 (_3!332 lt!8059))))))

(declare-fun res!12104 () Bool)

(assert (=> start!2831 (=> (not res!12104) (not e!8602))))

(assert (=> start!2831 (= res!12104 (and (bvsle #b00000000000000000000000000000010 jz!20) (bvslt jz!20 #b00000000000000000000000000010011)))))

(assert (=> start!2831 e!8602))

(assert (=> start!2831 true))

(declare-fun array_inv!459 (array!1172) Bool)

(assert (=> start!2831 (array_inv!459 q!31)))

(declare-fun array_inv!460 (array!1170) Bool)

(assert (=> start!2831 (array_inv!460 iq!76)))

(declare-fun b!15567 () Bool)

(declare-fun res!12099 () Bool)

(assert (=> b!15567 (=> (not res!12099) (not e!8599))))

(declare-fun carry!33 () (_ BitVec 32))

(assert (=> b!15567 (= res!12099 (and (bvsge (select (arr!511 iq!76) (bvsub jz!20 #b00000000000000000000000000000001)) #b00000000100000000000000000000000) (or (= carry!33 #b00000000000000000000000000000000) (= carry!33 #b00000000000000000000000000000001)) (bvslt i!142 (bvsub jz!20 #b00000000000000000000000000000001))))))

(declare-fun b!15568 () Bool)

(assert (=> b!15568 (= e!8601 (or (bvslt (select (arr!511 (_3!332 lt!8059)) (bvsub jz!20 #b00000000000000000000000000000001)) #b00000000100000000000000000000000) (and (not (= (_4!201 lt!8059) #b00000000000000000000000000000000)) (not (= (_4!201 lt!8059) #b00000000000000000000000000000001)))))))

(declare-fun b!15569 () Bool)

(declare-fun res!12100 () Bool)

(assert (=> b!15569 (=> (not res!12100) (not e!8602))))

(declare-fun qInv!0 (array!1172) Bool)

(assert (=> b!15569 (= res!12100 (qInv!0 q!31))))

(declare-fun b!15570 () Bool)

(assert (=> b!15570 (= e!8599 e!8596)))

(declare-fun res!12101 () Bool)

(assert (=> b!15570 (=> (not res!12101) (not e!8596))))

(declare-fun lt!8062 () (_ BitVec 32))

(declare-fun QInt!0 ((_ BitVec 32)) Bool)

(assert (=> b!15570 (= res!12101 (QInt!0 lt!8062))))

(assert (=> b!15570 (= lt!8062 (select (arr!511 iq!76) i!142))))

(declare-fun b!15571 () Bool)

(declare-fun computeModuloWhile!0 ((_ BitVec 32) array!1172 array!1170 (_ BitVec 32) (_ FloatingPoint 11 53)) tuple4!400)

(assert (=> b!15571 (= e!8598 (computeModuloWhile!0 jz!20 q!31 lt!8063 jz!20 lt!8057))))

(declare-fun b!15572 () Bool)

(assert (=> b!15572 (= e!8600 e!8601)))

(declare-fun res!12105 () Bool)

(assert (=> b!15572 (=> res!12105 e!8601)))

(assert (=> b!15572 (= res!12105 (or (bvsgt #b00000000000000000000000000000000 (_2!400 lt!8059)) (bvsgt (_2!400 lt!8059) (bvsub jz!20 #b00000000000000000000000000000001))))))

(declare-fun computeModuloWhile!3 ((_ BitVec 32) array!1172 (_ BitVec 32) array!1170 (_ BitVec 32)) tuple4!402)

(assert (=> b!15572 (= lt!8059 (computeModuloWhile!3 jz!20 q!31 lt!8061 (array!1171 (store (arr!511 iq!76) i!142 (ite (= carry!33 #b00000000000000000000000000000000) (ite (not (= lt!8062 #b00000000000000000000000000000000)) (bvsub #b00000001000000000000000000000000 lt!8062) #b00000000000000000000000000000000) (bvsub #b00000000111111111111111111111111 lt!8062))) (size!511 iq!76)) (ite (and (= carry!33 #b00000000000000000000000000000000) (not (= lt!8062 #b00000000000000000000000000000000))) #b00000000000000000000000000000001 carry!33)))))

(assert (= (and start!2831 res!12104) b!15569))

(assert (= (and b!15569 res!12100) b!15564))

(assert (= (and b!15564 c!1943) b!15571))

(assert (= (and b!15564 (not c!1943)) b!15563))

(assert (= (and b!15564 res!12106) b!15566))

(assert (= (and b!15566 res!12103) b!15567))

(assert (= (and b!15567 res!12099) b!15570))

(assert (= (and b!15570 res!12101) b!15565))

(assert (= (and b!15565 res!12102) b!15572))

(assert (= (and b!15572 (not res!12105)) b!15562))

(assert (= (and b!15562 (not res!12098)) b!15568))

(declare-fun m!24995 () Bool)

(assert (=> b!15569 m!24995))

(declare-fun m!24997 () Bool)

(assert (=> b!15571 m!24997))

(declare-fun m!24999 () Bool)

(assert (=> b!15568 m!24999))

(declare-fun m!25001 () Bool)

(assert (=> b!15570 m!25001))

(declare-fun m!25003 () Bool)

(assert (=> b!15570 m!25003))

(declare-fun m!25005 () Bool)

(assert (=> b!15567 m!25005))

(declare-fun m!25007 () Bool)

(assert (=> b!15566 m!25007))

(declare-fun m!25009 () Bool)

(assert (=> b!15564 m!25009))

(declare-fun m!25011 () Bool)

(assert (=> b!15564 m!25011))

(declare-fun m!25013 () Bool)

(assert (=> start!2831 m!25013))

(declare-fun m!25015 () Bool)

(assert (=> start!2831 m!25015))

(declare-fun m!25017 () Bool)

(assert (=> b!15572 m!25017))

(declare-fun m!25019 () Bool)

(assert (=> b!15572 m!25019))

(declare-fun m!25021 () Bool)

(assert (=> b!15562 m!25021))

(push 1)

(assert (not start!2831))

(assert (not b!15566))

(assert (not b!15569))

(assert (not b!15562))

(assert (not b!15572))

(assert (not b!15571))

(assert (not b!15570))

(check-sat)

(pop 1)

(push 1)

(check-sat)

(get-model)

(pop 1)

(declare-fun d!7632 () Bool)

(declare-fun res!12109 () Bool)

(declare-fun e!8605 () Bool)

(assert (=> d!7632 (=> (not res!12109) (not e!8605))))

(assert (=> d!7632 (= res!12109 (= (size!511 iq!76) #b00000000000000000000000000010100))))

(assert (=> d!7632 (= (iqInv!0 iq!76) e!8605)))

(declare-fun b!15575 () Bool)

(declare-fun lambda!703 () Int)

(declare-fun all20Int!0 (array!1170 Int) Bool)

(assert (=> b!15575 (= e!8605 (all20Int!0 iq!76 lambda!703))))

(assert (= (and d!7632 res!12109) b!15575))

(declare-fun m!25023 () Bool)

(assert (=> b!15575 m!25023))

(assert (=> b!15566 d!7632))

(declare-fun d!7634 () Bool)

(declare-fun e!8612 () Bool)

(assert (=> d!7634 e!8612))

(declare-fun res!12121 () Bool)

(assert (=> d!7634 (=> (not res!12121) (not e!8612))))

(declare-fun lt!8074 () tuple4!400)

(assert (=> d!7634 (= res!12121 (and true true (bvsle #b00000000000000000000000000000000 (_3!331 lt!8074)) (bvsle (_3!331 lt!8074) jz!20) (fp.leq (fp #b0 #b00000000000 #b0000000000000000000000000000000000000000000000000000) (_4!200 lt!8074)) (fp.leq (_4!200 lt!8074) (fp #b0 #b10000110001 #b0100000000000000000000010011111111111111111111111100))))))

(declare-fun e!8613 () tuple4!400)

(assert (=> d!7634 (= lt!8074 e!8613)))

(declare-fun c!1946 () Bool)

(declare-fun lt!8076 () (_ BitVec 32))

(assert (=> d!7634 (= c!1946 (bvsgt lt!8076 #b00000000000000000000000000000000))))

(assert (=> d!7634 (= lt!8076 (bvsub jz!20 #b00000000000000000000000000000001))))

(declare-fun lt!8078 () (_ FloatingPoint 11 53))

(declare-fun lt!8075 () (_ FloatingPoint 11 53))

(assert (=> d!7634 (= lt!8078 (fp.add roundNearestTiesToEven (select (arr!512 q!31) (bvsub jz!20 #b00000000000000000000000000000001)) lt!8075))))

(declare-fun lt!8077 () array!1170)

(assert (=> d!7634 (= lt!8077 (array!1171 (store (arr!511 lt!8063) (bvsub jz!20 jz!20) (ite (fp.isNaN (fp.sub roundNearestTiesToEven lt!8057 (fp.mul roundNearestTiesToEven (fp #b0 #b10000010111 #b0000000000000000000000000000000000000000000000000000) lt!8075))) #b00000000000000000000000000000000 (ite (fp.gt (fp.sub roundNearestTiesToEven lt!8057 (fp.mul roundNearestTiesToEven (fp #b0 #b10000010111 #b0000000000000000000000000000000000000000000000000000) lt!8075)) ((_ to_fp 11 53) roundTowardZero #b01111111111111111111111111111111)) #b01111111111111111111111111111111 (ite (fp.lt (fp.sub roundNearestTiesToEven lt!8057 (fp.mul roundNearestTiesToEven (fp #b0 #b10000010111 #b0000000000000000000000000000000000000000000000000000) lt!8075)) ((_ to_fp 11 53) roundTowardZero #b10000000000000000000000000000000)) #b10000000000000000000000000000000 ((_ fp.to_sbv 32) roundTowardZero (fp.sub roundNearestTiesToEven lt!8057 (fp.mul roundNearestTiesToEven (fp #b0 #b10000010111 #b0000000000000000000000000000000000000000000000000000) lt!8075))))))) (size!511 lt!8063)))))

(assert (=> d!7634 (= lt!8075 ((_ to_fp 11 53) roundNearestTiesToEven (ite (fp.isNaN (fp.mul roundNearestTiesToEven (fp #b0 #b01111100111 #b0000000000000000000000000000000000000000000000000000) lt!8057)) #b00000000000000000000000000000000 (ite (fp.gt (fp.mul roundNearestTiesToEven (fp #b0 #b01111100111 #b0000000000000000000000000000000000000000000000000000) lt!8057) ((_ to_fp 11 53) roundTowardZero #b01111111111111111111111111111111)) #b01111111111111111111111111111111 (ite (fp.lt (fp.mul roundNearestTiesToEven (fp #b0 #b01111100111 #b0000000000000000000000000000000000000000000000000000) lt!8057) ((_ to_fp 11 53) roundTowardZero #b10000000000000000000000000000000)) #b10000000000000000000000000000000 ((_ fp.to_sbv 32) roundTowardZero (fp.mul roundNearestTiesToEven (fp #b0 #b01111100111 #b0000000000000000000000000000000000000000000000000000) lt!8057)))))))))

(declare-fun e!8614 () Bool)

(assert (=> d!7634 e!8614))

(declare-fun res!12119 () Bool)

(assert (=> d!7634 (=> (not res!12119) (not e!8614))))

(assert (=> d!7634 (= res!12119 (and (bvsle #b00000000000000000000000000000000 jz!20) (bvsle jz!20 jz!20) (fp.leq (fp #b0 #b00000000000 #b0000000000000000000000000000000000000000000000000000) lt!8057) (fp.leq lt!8057 (fp #b0 #b10000110001 #b0100000000000000000000010011111111111111111111111100))))))

(assert (=> d!7634 (= (computeModuloWhile!0 jz!20 q!31 lt!8063 jz!20 lt!8057) lt!8074)))

(declare-fun b!15588 () Bool)

(declare-fun res!12120 () Bool)

(assert (=> b!15588 (=> (not res!12120) (not e!8614))))

(assert (=> b!15588 (= res!12120 (iqInv!0 lt!8063))))

(declare-fun b!15589 () Bool)

(assert (=> b!15589 (= e!8613 (computeModuloWhile!0 jz!20 q!31 lt!8077 lt!8076 lt!8078))))

(declare-fun b!15590 () Bool)

(declare-fun res!12118 () Bool)

(assert (=> b!15590 (=> (not res!12118) (not e!8612))))

(assert (=> b!15590 (= res!12118 (iqInv!0 (_2!399 lt!8074)))))

(declare-fun b!15591 () Bool)

(assert (=> b!15591 (= e!8612 (bvsle (_3!331 lt!8074) #b00000000000000000000000000000000))))

(declare-fun b!15592 () Bool)

(assert (=> b!15592 (= e!8614 (bvsgt jz!20 #b00000000000000000000000000000000))))

(declare-fun b!15593 () Bool)

(declare-fun Unit!1634 () Unit!1631)

(assert (=> b!15593 (= e!8613 (tuple4!401 Unit!1634 lt!8077 lt!8076 lt!8078))))

(assert (= (and d!7634 res!12119) b!15588))

(assert (= (and b!15588 res!12120) b!15592))

(assert (= (and d!7634 c!1946) b!15589))

(assert (= (and d!7634 (not c!1946)) b!15593))

(assert (= (and d!7634 res!12121) b!15590))

(assert (= (and b!15590 res!12118) b!15591))

(declare-fun m!25025 () Bool)

(assert (=> d!7634 m!25025))

(declare-fun m!25027 () Bool)

(assert (=> d!7634 m!25027))

(declare-fun m!25029 () Bool)

(assert (=> b!15588 m!25029))

(declare-fun m!25031 () Bool)

(assert (=> b!15589 m!25031))

(declare-fun m!25033 () Bool)

(assert (=> b!15590 m!25033))

(assert (=> b!15571 d!7634))

(declare-fun d!7636 () Bool)

(assert (=> d!7636 (= (array_inv!459 q!31) (bvsge (size!512 q!31) #b00000000000000000000000000000000))))

(assert (=> start!2831 d!7636))

(declare-fun d!7638 () Bool)

(assert (=> d!7638 (= (array_inv!460 iq!76) (bvsge (size!511 iq!76) #b00000000000000000000000000000000))))

(assert (=> start!2831 d!7638))

(declare-fun bs!3189 () Bool)

(declare-fun b!15594 () Bool)

(assert (= bs!3189 (and b!15594 b!15575)))

(declare-fun lambda!704 () Int)

(assert (=> bs!3189 (= lambda!704 lambda!703)))

(declare-fun d!7640 () Bool)

(declare-fun res!12122 () Bool)

(declare-fun e!8615 () Bool)

(assert (=> d!7640 (=> (not res!12122) (not e!8615))))

(assert (=> d!7640 (= res!12122 (= (size!511 (_3!332 lt!8059)) #b00000000000000000000000000010100))))

(assert (=> d!7640 (= (iqInv!0 (_3!332 lt!8059)) e!8615)))

(assert (=> b!15594 (= e!8615 (all20Int!0 (_3!332 lt!8059) lambda!704))))

(assert (= (and d!7640 res!12122) b!15594))

(declare-fun m!25035 () Bool)

(assert (=> b!15594 m!25035))

(assert (=> b!15562 d!7640))

(declare-fun b!15615 () Bool)

(declare-fun e!8624 () tuple4!402)

(declare-fun lt!8103 () (_ BitVec 32))

(declare-fun lt!8099 () (_ BitVec 32))

(declare-fun lt!8098 () array!1170)

(assert (=> b!15615 (= e!8624 (computeModuloWhile!3 jz!20 q!31 lt!8103 lt!8098 lt!8099))))

(declare-fun b!15616 () Bool)

(declare-fun res!12136 () Bool)

(declare-fun e!8625 () Bool)

(assert (=> b!15616 (=> (not res!12136) (not e!8625))))

(declare-fun lt!8100 () tuple4!402)

(declare-fun lt!8101 () (_ BitVec 32))

(assert (=> b!15616 (= res!12136 (bvsge (select (arr!511 (_3!332 lt!8100)) lt!8101) #b00000000100000000000000000000000))))

(assert (=> b!15616 (and (bvsge lt!8101 #b00000000000000000000000000000000) (bvslt lt!8101 (size!511 (_3!332 lt!8100))))))

(assert (=> b!15616 (= lt!8101 (bvsub jz!20 #b00000000000000000000000000000001))))

(assert (=> b!15616 (or (= (bvand jz!20 #b10000000000000000000000000000000) #b00000000000000000000000000000000) (= (bvand jz!20 #b10000000000000000000000000000000) (bvand (bvsub jz!20 #b00000000000000000000000000000001) #b10000000000000000000000000000000)))))

(declare-fun e!8627 () Bool)

(declare-fun b!15617 () Bool)

(assert (=> b!15617 (= e!8627 (and (bvsge (select (arr!511 (array!1171 (store (arr!511 iq!76) i!142 (ite (= carry!33 #b00000000000000000000000000000000) (ite (not (= lt!8062 #b00000000000000000000000000000000)) (bvsub #b00000001000000000000000000000000 lt!8062) #b00000000000000000000000000000000) (bvsub #b00000000111111111111111111111111 lt!8062))) (size!511 iq!76))) (bvsub jz!20 #b00000000000000000000000000000001)) #b00000000100000000000000000000000) (or (= (ite (and (= carry!33 #b00000000000000000000000000000000) (not (= lt!8062 #b00000000000000000000000000000000))) #b00000000000000000000000000000001 carry!33) #b00000000000000000000000000000000) (= (ite (and (= carry!33 #b00000000000000000000000000000000) (not (= lt!8062 #b00000000000000000000000000000000))) #b00000000000000000000000000000001 carry!33) #b00000000000000000000000000000001)) (bvslt lt!8061 (bvsub jz!20 #b00000000000000000000000000000001))))))

(declare-fun b!15618 () Bool)

(declare-fun res!12140 () Bool)

(assert (=> b!15618 (=> (not res!12140) (not e!8625))))

(assert (=> b!15618 (= res!12140 (iqInv!0 (_3!332 lt!8100)))))

(declare-fun lt!8104 () (_ FloatingPoint 11 53))

(declare-fun lt!8097 () array!1170)

(declare-fun b!15619 () Bool)

(declare-fun e!8626 () tuple4!400)

(assert (=> b!15619 (= e!8626 (computeModuloWhile!0 jz!20 q!31 lt!8097 jz!20 lt!8104))))

(declare-fun b!15620 () Bool)

(declare-fun Unit!1635 () Unit!1631)

(assert (=> b!15620 (= e!8624 (tuple4!403 Unit!1635 lt!8103 lt!8098 lt!8099))))

(declare-fun b!15621 () Bool)

(declare-fun Unit!1636 () Unit!1631)

(assert (=> b!15621 (= e!8626 (tuple4!401 Unit!1636 lt!8097 jz!20 lt!8104))))

(declare-fun d!7642 () Bool)

(assert (=> d!7642 e!8625))

(declare-fun res!12137 () Bool)

(assert (=> d!7642 (=> (not res!12137) (not e!8625))))

(assert (=> d!7642 (= res!12137 (and (or (bvsgt #b00000000000000000000000000000000 (_2!400 lt!8100)) (= (bvand jz!20 #b10000000000000000000000000000000) #b00000000000000000000000000000000) (= (bvand jz!20 #b10000000000000000000000000000000) (bvand (bvsub jz!20 #b00000000000000000000000000000001) #b10000000000000000000000000000000))) (bvsle #b00000000000000000000000000000000 (_2!400 lt!8100)) (bvsle (_2!400 lt!8100) (bvsub jz!20 #b00000000000000000000000000000001))))))

(assert (=> d!7642 (= lt!8100 e!8624)))

(declare-fun c!1952 () Bool)

(assert (=> d!7642 (= c!1952 (bvslt lt!8103 (bvsub jz!20 #b00000000000000000000000000000001)))))

(assert (=> d!7642 (= lt!8103 (bvadd lt!8061 #b00000000000000000000000000000001))))

(declare-fun lt!8102 () (_ BitVec 32))

(assert (=> d!7642 (= lt!8099 (ite (and (= (ite (and (= carry!33 #b00000000000000000000000000000000) (not (= lt!8062 #b00000000000000000000000000000000))) #b00000000000000000000000000000001 carry!33) #b00000000000000000000000000000000) (not (= lt!8102 #b00000000000000000000000000000000))) #b00000000000000000000000000000001 (ite (and (= carry!33 #b00000000000000000000000000000000) (not (= lt!8062 #b00000000000000000000000000000000))) #b00000000000000000000000000000001 carry!33)))))

(assert (=> d!7642 (= lt!8098 (array!1171 (store (arr!511 (array!1171 (store (arr!511 iq!76) i!142 (ite (= carry!33 #b00000000000000000000000000000000) (ite (not (= lt!8062 #b00000000000000000000000000000000)) (bvsub #b00000001000000000000000000000000 lt!8062) #b00000000000000000000000000000000) (bvsub #b00000000111111111111111111111111 lt!8062))) (size!511 iq!76))) lt!8061 (ite (= (ite (and (= carry!33 #b00000000000000000000000000000000) (not (= lt!8062 #b00000000000000000000000000000000))) #b00000000000000000000000000000001 carry!33) #b00000000000000000000000000000000) (ite (not (= lt!8102 #b00000000000000000000000000000000)) (bvsub #b00000001000000000000000000000000 lt!8102) #b00000000000000000000000000000000) (bvsub #b00000000111111111111111111111111 lt!8102))) (size!511 (array!1171 (store (arr!511 iq!76) i!142 (ite (= carry!33 #b00000000000000000000000000000000) (ite (not (= lt!8062 #b00000000000000000000000000000000)) (bvsub #b00000001000000000000000000000000 lt!8062) #b00000000000000000000000000000000) (bvsub #b00000000111111111111111111111111 lt!8062))) (size!511 iq!76)))))))

(assert (=> d!7642 (= lt!8102 (select (arr!511 (array!1171 (store (arr!511 iq!76) i!142 (ite (= carry!33 #b00000000000000000000000000000000) (ite (not (= lt!8062 #b00000000000000000000000000000000)) (bvsub #b00000001000000000000000000000000 lt!8062) #b00000000000000000000000000000000) (bvsub #b00000000111111111111111111111111 lt!8062))) (size!511 iq!76))) lt!8061))))

(assert (=> d!7642 e!8627))

(declare-fun res!12139 () Bool)

(assert (=> d!7642 (=> (not res!12139) (not e!8627))))

(assert (=> d!7642 (= res!12139 (and (bvsle #b00000000000000000000000000000000 lt!8061) (bvsle lt!8061 (bvsub jz!20 #b00000000000000000000000000000001))))))

(declare-fun lt!8105 () tuple4!400)

(assert (=> d!7642 (= lt!8105 e!8626)))

(declare-fun c!1951 () Bool)

(assert (=> d!7642 (= c!1951 (bvsgt jz!20 #b00000000000000000000000000000000))))

(assert (=> d!7642 (= lt!8104 (select (arr!512 q!31) jz!20))))

(assert (=> d!7642 (= lt!8097 (array!1171 ((as const (Array (_ BitVec 32) (_ BitVec 32))) #b00000000000000000000000000000000) #b00000000000000000000000000010100))))

(assert (=> d!7642 (= (computeModuloWhile!3 jz!20 q!31 lt!8061 (array!1171 (store (arr!511 iq!76) i!142 (ite (= carry!33 #b00000000000000000000000000000000) (ite (not (= lt!8062 #b00000000000000000000000000000000)) (bvsub #b00000001000000000000000000000000 lt!8062) #b00000000000000000000000000000000) (bvsub #b00000000111111111111111111111111 lt!8062))) (size!511 iq!76)) (ite (and (= carry!33 #b00000000000000000000000000000000) (not (= lt!8062 #b00000000000000000000000000000000))) #b00000000000000000000000000000001 carry!33)) lt!8100)))

(declare-fun b!15622 () Bool)

(declare-fun res!12138 () Bool)

(assert (=> b!15622 (=> (not res!12138) (not e!8627))))

(assert (=> b!15622 (= res!12138 (iqInv!0 (array!1171 (store (arr!511 iq!76) i!142 (ite (= carry!33 #b00000000000000000000000000000000) (ite (not (= lt!8062 #b00000000000000000000000000000000)) (bvsub #b00000001000000000000000000000000 lt!8062) #b00000000000000000000000000000000) (bvsub #b00000000111111111111111111111111 lt!8062))) (size!511 iq!76))))))

(declare-fun b!15623 () Bool)

(assert (=> b!15623 (= e!8625 (bvsge (_2!400 lt!8100) (bvsub jz!20 #b00000000000000000000000000000001)))))

(assert (=> b!15623 (or (= (bvand jz!20 #b10000000000000000000000000000000) #b00000000000000000000000000000000) (= (bvand jz!20 #b10000000000000000000000000000000) (bvand (bvsub jz!20 #b00000000000000000000000000000001) #b10000000000000000000000000000000)))))

(declare-fun b!15624 () Bool)

(declare-fun res!12135 () Bool)

(assert (=> b!15624 (=> (not res!12135) (not e!8625))))

(assert (=> b!15624 (= res!12135 (or (= (_4!201 lt!8100) #b00000000000000000000000000000000) (= (_4!201 lt!8100) #b00000000000000000000000000000001)))))

(assert (= (and d!7642 c!1951) b!15619))

(assert (= (and d!7642 (not c!1951)) b!15621))

(assert (= (and d!7642 res!12139) b!15622))

(assert (= (and b!15622 res!12138) b!15617))

(assert (= (and d!7642 c!1952) b!15615))

(assert (= (and d!7642 (not c!1952)) b!15620))

(assert (= (and d!7642 res!12137) b!15618))

(assert (= (and b!15618 res!12140) b!15616))

(assert (= (and b!15616 res!12136) b!15624))

(assert (= (and b!15624 res!12135) b!15623))

(declare-fun m!25037 () Bool)

(assert (=> b!15616 m!25037))

(declare-fun m!25039 () Bool)

(assert (=> d!7642 m!25039))

(declare-fun m!25041 () Bool)

(assert (=> d!7642 m!25041))

(assert (=> d!7642 m!25011))

(declare-fun m!25043 () Bool)

(assert (=> b!15622 m!25043))

(declare-fun m!25045 () Bool)

(assert (=> b!15619 m!25045))

(declare-fun m!25047 () Bool)

(assert (=> b!15615 m!25047))

(declare-fun m!25049 () Bool)

(assert (=> b!15617 m!25049))

(declare-fun m!25051 () Bool)

(assert (=> b!15618 m!25051))

(assert (=> b!15572 d!7642))

(declare-fun d!7644 () Bool)

(declare-fun res!12143 () Bool)

(declare-fun e!8630 () Bool)

(assert (=> d!7644 (=> (not res!12143) (not e!8630))))

(assert (=> d!7644 (= res!12143 (= (size!512 q!31) #b00000000000000000000000000010100))))

(assert (=> d!7644 (= (qInv!0 q!31) e!8630)))

(declare-fun b!15627 () Bool)

(declare-fun lambda!707 () Int)

(declare-fun all20!0 (array!1172 Int) Bool)

(assert (=> b!15627 (= e!8630 (all20!0 q!31 lambda!707))))

(assert (= (and d!7644 res!12143) b!15627))

(declare-fun m!25053 () Bool)

(assert (=> b!15627 m!25053))

(assert (=> b!15569 d!7644))

(declare-fun d!7646 () Bool)

(assert (=> d!7646 (= (QInt!0 lt!8062) (and (bvsle #b00000000000000000000000000000000 lt!8062) (bvsle lt!8062 #b00000000111111111111111111111111)))))

(assert (=> b!15570 d!7646))

(push 1)

(assert (not b!15615))

(assert (not b!15590))

(assert (not b!15588))

(assert (not b!15575))

(assert (not b!15622))

(assert (not b!15594))

(assert (not b!15618))

(assert (not b!15589))

(assert (not b!15627))

(assert (not b!15619))

(check-sat)

(pop 1)

(push 1)

(check-sat)

(pop 1)

